120
1000
200
200
199
199
199
198
198
198
198
197
197
197
197
197
196
196
195
194
194
194
194
193
193
193
192
191
190
189
188
188
188
188
187
187
186
186
186
184
184
184
184
183
180
179
179
178
178
177
176
176
176
175
175
175
175
175
175
174
173
173
173
172
172
172
171
170
170
170
169
169
169
167
167
166
166
166
166
165
164
164
163
163
162
162
161
161
161
159
159
159
158
156
156
156
156
156
155
155
155
155
155
155
155
155
154
154
153
152
152
152
152
152
152
152
152
151
151
150
150
150
